PARAMETER_FILE = even/LKH_uncomplete_graph/x10/seg/par/random98.par
PROBLEM_FILE = even/LKH_uncomplete_graph/x10/seg/mat/random98.tsp
Successes/Runs = 0/10
Cost.min = 764, Cost.avg = 764.00, Cost.max = 764
Gap.min = 0.0000%, Gap.avg = 0.0000%, Gap.max = 0.0000%
Trials.min = 1000, Trials.avg = 1000.0, Trials.max = 1000
Time.min = 0.24 sec., Time.avg = 0.47 sec., Time.max = 0.90 sec.
Time.total = 4.76 sec.
请按任意键继续. . . 
